p tw 28 195
0 1
0 2
0 3
0 19
0 4
0 11
0 12
0 24
0 18
0 7
0 16
0 15
0 22
0 17
0 23
0 5
0 10
1 2
1 14
1 15
1 24
1 27
1 11
1 4
1 20
1 25
1 6
1 8
1 21
2 16
2 17
2 18
2 20
2 4
2 9
2 27
2 12
2 11
2 24
2 26
2 14
3 4
3 5
3 19
3 13
3 16
3 22
3 17
3 18
3 10
3 11
3 25
3 9
3 20
4 5
4 11
4 9
4 17
4 15
4 19
4 7
4 18
4 23
5 6
5 7
5 17
5 15
5 16
5 21
5 24
5 26
5 9
5 27
5 12
5 23
5 25
6 7
6 14
6 21
6 17
6 10
6 26
6 20
6 23
6 9
6 24
6 19
6 27
6 25
6 11
7 8
7 24
7 10
7 19
7 16
7 14
7 21
7 18
7 23
7 15
7 17
8 9
8 10
8 24
8 27
8 21
8 17
8 20
9 10
9 13
9 21
9 18
9 27
9 19
9 24
9 17
9 12
9 20
10 14
10 18
10 19
10 11
10 23
10 26
10 22
10 20
10 17
11 12
11 13
11 15
11 23
11 18
11 17
11 22
11 27
11 19
11 24
12 13
12 24
12 15
12 17
12 27
12 21
12 20
13 16
13 21
13 18
13 17
13 26
13 25
13 15
13 27
14 15
14 18
14 21
14 17
14 20
14 26
14 27
15 16
15 22
15 17
16 17
16 23
16 24
16 19
16 27
17 19
17 23
17 26
17 21
17 18
17 25
17 20
18 20
18 26
18 27
18 25
18 24
19 22
19 23
19 27
19 24
19 20
20 22
20 25
20 23
21 23
22 23
22 25
22 27
23 24
24 27
24 26
26 27
